56
173
70
28
258
136
121
159
184
239
40
182
107
161
156
169
124
108
252
210
120
221
256
124
165
225
64
237
28
120
193
58
89
201
120
173
103
7
62
230
81
252
238
252
156
150
164
19
210
101
8
143
108
120
253
6
161
257
193
42
100
251
82
202
212
122
169
16
116
80
179
7
182
159
53
199
177
97
77
200
195
99
132
97
241
174
58
163
131
255
216
112
15
8
67
179
216
172
51
244
